100
128
28
24
27
5
36
45
21
61
8
44
21
39
53
26
19
16
24
32
39
59
7
16
35
62
11
41
24
64
31
11
32
43
28
25
22
22
7
15
19
55
57
32
50
12
27
39
56
43
24
35
31
1
11
14
14
2
58
47
43
59
28
44
40
26
21
16
29
61
38
25
43
27
40
40
8
40
32
24
64
44
43
4
64
64
40
35
10
36
41
64
64
48
51
35
42
36
42
50
55
63